Route 1: 0 38 44 88 43 32 24 45 27 52 0
Route 2: 0 46 100 13 69 31 8 98 36 66 39 0
Route 3: 0 19 41 4 68 94 91 51 56 3 74 40 0
Route 4: 0 75 2 89 90 57 53 0
Route 5: 0 58 28 67 82 15 84 12 20 47 0
Route 6: 0 87 77 48 10 1 26 96 78 33 6 0
Route 7: 0 17 11 85 79 65 61 16 55 0
Route 8: 0 5 60 62 42 35 49 0
Route 9: 0 59 99 54 18 83 22 70 71 92 0
Route 10: 0 23 25 76 81 30 73 9 93 0
Route 11: 0 80 37 64 34 95 7 0
Route 12: 0 72 97 50 14 63 29 86 21 0
